2 30
835 686 
0 63 1 40 19 48 10 2
1 100 73 16 8 1 23 2
2 69 95 78 66 86 82 2
3 9 96 94 43 81 48 2
4 91 1 59 44 23 55 1
5 22 55 31 1 95 5 2
6 15 22 63 49 8 42 2
7 1 29 33 67 46 62 2
8 8 10 60 77 94 50 2
9 88 95 48 42 55 88 1
10 92 37 85 75 31 17 1
11 16 16 89 27 10 80 2
12 96 77 57 28 57 97 2
13 51 93 100 40 32 25 2
14 40 50 5 76 85 63 2
15 13 98 66 20 36 81 1
16 7 42 52 29 83 12 2
17 39 65 68 52 43 45 2
18 68 22 4 45 93 75 1
19 95 71 83 46 6 4 1
20 79 66 75 73 89 3 1
21 52 81 13 39 18 15 1
22 53 61 98 12 86 74 1
23 1 72 86 46 81 88 2
24 34 46 79 64 75 95 2
25 80 41 44 56 75 48 2
26 65 31 94 74 63 14 2
27 45 57 5 95 73 9 2
28 83 99 96 21 24 72 2
29 78 68 86 39 30 89 1
